4 10 50 1 2
0 200
 1 40.00 50.00 0.00 0.00 0.00 0 0 0 1236
 2 45.00 68.00 90.00 10.00 10.00 1 1 1 850 1030
 3 45.00 70.00 90.00 30.00 20.00 1 1 1 758 938
 4 42.00 66.00 90.00 10.00 30.00 1 1 1 16 196
 5 42.00 68.00 90.00 10.00 30.00 1 1 1 665 845
 6 42.00 65.00 90.00 10.00 10.00 1 1 1 15 195
 7 40.00 69.00 90.00 20.00 10.00 1 1 1 572 752
 8 40.00 66.00 90.00 20.00 30.00 1 1 1 108 288
 9 38.00 68.00 90.00 20.00 10.00 1 1 1 200 380
 10 38.00 70.00 90.00 10.00 10.00 1 1 1 480 660
 11 35.00 66.00 90.00 10.00 20.00 1 1 1 294 474
 12 35.00 69.00 90.00 10.00 10.00 1 1 1 387 567
 13 25.00 85.00 90.00 20.00 20.00 1 1 1 597 777
 14 22.00 75.00 90.00 30.00 10.00 1 1 1 30 210
 15 22.00 85.00 90.00 10.00 40.00 1 1 1 504 684
 16 20.00 80.00 90.00 40.00 10.00 1 1 1 317 497
 17 20.00 85.00 90.00 40.00 10.00 1 1 1 412 592
 18 18.00 75.00 90.00 20.00 10.00 1 1 1 34 214
 19 15.00 75.00 90.00 20.00 10.00 1 1 1 127 307
 20 15.00 80.00 90.00 10.00 40.00 1 1 1 222 402
 21 30.00 50.00 90.00 10.00 20.00 1 1 1 10 190
 22 30.00 52.00 90.00 20.00 40.00 1 1 1 850 1030
 23 28.00 52.00 90.00 20.00 10.00 1 1 1 758 938
 24 28.00 55.00 90.00 10.00 20.00 1 1 1 665 845
 25 25.00 50.00 90.00 10.00 10.00 1 1 1 15 195
 26 25.00 52.00 90.00 40.00 10.00 1 1 1 107 287
 27 25.00 55.00 90.00 10.00 30.00 1 1 1 572 752
 28 23.00 52.00 90.00 10.00 20.00 1 1 1 199 379
 29 23.00 55.00 90.00 20.00 10.00 1 1 1 480 660
 30 20.00 50.00 90.00 10.00 10.00 1 1 1 292 472
 31 20.00 55.00 90.00 10.00 10.00 1 1 1 387 567
 32 10.00 35.00 90.00 20.00 10.00 1 1 1 129 309
 33 10.00 40.00 90.00 30.00 20.00 1 1 1 31 211
 34 8.00 40.00 90.00 40.00 10.00 1 1 1 33 213
 35 8.00 45.00 90.00 20.00 40.00 1 1 1 694 874
 36 5.00 35.00 90.00 10.00 10.00 1 1 1 224 404
 37 5.00 45.00 90.00 10.00 20.00 1 1 1 601 781
 38 2.00 40.00 90.00 20.00 20.00 1 1 1 319 499
 39 0.00 40.00 90.00 30.00 20.00 1 1 1 411 591
 40 0.00 45.00 90.00 20.00 10.00 1 1 1 506 686
 41 35.00 30.00 90.00 10.00 10.00 1 1 1 203 383
 42 35.00 32.00 90.00 10.00 20.00 1 1 1 111 291
 43 33.00 32.00 90.00 20.00 30.00 1 1 1 19 199
 44 33.00 35.00 90.00 10.00 10.00 1 1 1 16 196
 45 32.00 30.00 90.00 10.00 10.00 1 1 1 296 476
 46 30.00 30.00 90.00 10.00 10.00 1 1 1 481 661
 47 30.00 32.00 90.00 30.00 10.00 1 1 1 389 569
 48 30.00 35.00 90.00 10.00 20.00 1 1 1 947 1127
 49 28.00 30.00 90.00 10.00 20.00 1 1 1 573 753
 50 28.00 35.00 90.00 10.00 10.00 1 1 1 944 1124
 51 26.00 32.00 90.00 10.00 20.00 1 1 1 758 938
